c preprocessed version of ErreraGraph, 17 vertices, 45 edges
p td 17 45
0 1
0 14
0 15
0 16
0 7
1 14
1 15
1 2
1 9
10 12
11 13
13 15
14 16
2 10
2 14
2 3
2 8
2 9
3 10
3 11
3 4
3 9
4 10
4 11
4 12
4 5
5 11
5 12
5 13
5 6
6 12
6 13
6 16
6 7
6 8
7 13
7 15
7 16
8 10
8 12
8 14
8 16
9 11
9 13
9 15
